benchmark/results/graph__10-1000-0.10-04_13/error_log/graph__10-1000-0.10-04_13_Quinton_Benders_primal_sub_ERRORLOG.lp
\ This file has been generated by DOcplex
\ ENCODING=ISO-8859-1
\Problem name: Quinton Benders_primal_sub

Maximize
 obj: tau
Subject To
 c1: tau <= 0.002747252747
 c2: y_a0_proc_0 + y_a0_proc_1 + y_a0_proc_2 + y_a0_proc_3 - tau = 0
 c3: y_a0_proc_0 <= 0
 c4: y_a0_proc_1 <= 0
 c5: y_a0_proc_2 <= 1
 c6: y_a0_proc_3 <= 0
 c7: tau <= 0.002717391304
 c8: y_a1_proc_0 + y_a1_proc_1 + y_a1_proc_3 - tau = 0
 c9: y_a1_proc_0 <= 1
 c10: y_a1_proc_1 <= 0
 c11: y_a1_proc_3 <= 0
 c12: tau <= 0.001517450683
 c13: y_a2_proc_0 + y_a2_proc_1 + y_a2_proc_2 + y_a2_proc_3 - tau = 0
 c14: y_a2_proc_0 <= 0
 c15: y_a2_proc_1 <= 0
 c16: y_a2_proc_2 <= 1
 c17: y_a2_proc_3 <= 0
 c18: tau <= 0.002024291498
 c19: y_a3_proc_0 + y_a3_proc_1 + y_a3_proc_2 + y_a3_proc_3 - tau = 0
 c20: y_a3_proc_0 <= 1
 c21: y_a3_proc_1 <= 0
 c22: y_a3_proc_2 <= 0
 c23: y_a3_proc_3 <= 0
 c24: tau <= 0.001594896332
 c25: y_a4_proc_1 + y_a4_proc_2 + y_a4_proc_3 - tau = 0
 c26: y_a4_proc_1 <= 1
 c27: y_a4_proc_2 <= 0
 c28: y_a4_proc_3 <= 0
 c29: tau <= 0.000909090909
 c30: y_a5_proc_0 + y_a5_proc_1 + y_a5_proc_3 - tau = 0
 c31: y_a5_proc_0 <= 1
 c32: y_a5_proc_1 <= 0
 c33: y_a5_proc_3 <= 0
 c34: tau <= 0.001069518717
 c35: y_a6_proc_0 + y_a6_proc_1 + y_a6_proc_2 + y_a6_proc_3 - tau = 0
 c36: y_a6_proc_0 <= 1
 c37: y_a6_proc_1 <= 0
 c38: y_a6_proc_2 <= 0
 c39: y_a6_proc_3 <= 0
 c40: tau <= 0.000889679715
 c41: y_a7_proc_2 + y_a7_proc_3 - tau = 0
 c42: y_a7_proc_2 <= 1
 c43: y_a7_proc_3 <= 0
 c44: tau <= 0.001072961373
 c45: y_a8_proc_2 + y_a8_proc_3 - tau = 0
 c46: y_a8_proc_2 <= 0
 c47: y_a8_proc_3 <= 1
 c48: tau <= 0.002247191011
 c49: y_a9_proc_0 + y_a9_proc_1 + y_a9_proc_2 - tau = 0
 c50: y_a9_proc_0 <= 0
 c51: y_a9_proc_1 <= 1
 c52: y_a9_proc_2 <= 0
 c53: u_a0 - u_a1 - 368 y_a1_proc_0 - 765 y_a1_proc_1 - 1207 y_a1_proc_3 >= 0
 c54: u_a1 - u_a2 - 1203 y_a2_proc_0 - 1052 y_a2_proc_1 - 659 y_a2_proc_2
      - 1041 y_a2_proc_3 >= 0
 c55: u_a1 - u_a3 - 494 y_a3_proc_0 - 604 y_a3_proc_1 - 515 y_a3_proc_2
      - 645 y_a3_proc_3 >= -1
 c56: u_a2 - u_a4 - 627 y_a4_proc_1 - 666 y_a4_proc_2 - 1300 y_a4_proc_3 >= 0
 c57: u_a5 - u_a1 - 368 y_a1_proc_0 - 765 y_a1_proc_1 - 1207 y_a1_proc_3 >= 0
 c58: u_a6 - u_a0 - 1236 y_a0_proc_0 - 398 y_a0_proc_1 - 364 y_a0_proc_2
      - 882 y_a0_proc_3 >= 0
 c59: u_a7 - u_a6 - 935 y_a6_proc_0 - 1069 y_a6_proc_1 - 1029 y_a6_proc_2
      - 944 y_a6_proc_3 >= 0
 c60: u_a8 - u_a2 - 1203 y_a2_proc_0 - 1052 y_a2_proc_1 - 659 y_a2_proc_2
      - 1041 y_a2_proc_3 >= 0
 c61: u_a5 - u_a9 - 1170 y_a9_proc_0 - 445 y_a9_proc_1 - 675 y_a9_proc_2 >= 0
 c62: u_a4 - u_a8 - 1091 y_a8_proc_2 - 932 y_a8_proc_3 >= -1
 c63: - 1203 y_a2_proc_0 - 1052 y_a2_proc_1 - 659 y_a2_proc_2 - 1041 y_a2_proc_3
       >= -1
 c64: u_a3 - u_a7 - 1124 y_a7_proc_2 - 1050 y_a7_proc_3 >= 0
 c65: - 1100 y_a5_proc_0 - 1009 y_a5_proc_1 - 697 y_a5_proc_3 >= -1
 c66: - 1124 y_a7_proc_2 - 1050 y_a7_proc_3 >= -1
 c67: u_a1 - u_a0 - 882 y_a0_proc_3 >= -3901
 c68: u_a1 - u_a0 - 1236 y_a0_proc_0 >= -2601
 c69: u_a1 - u_a0 - 398 y_a0_proc_1 >= -3901
 c70: u_a0 - u_a1 - 1207 y_a1_proc_3 >= -1300
 c71: u_a0 - u_a1 - 368 y_a1_proc_0 >= 0
 c72: u_a0 - u_a1 - 765 y_a1_proc_1 >= -1300
 c73: u_a2 - u_a0 - 364 y_a0_proc_2 >= -999998699
 c74: u_a2 - u_a0 - 882 y_a0_proc_3 >= -1000001299
 c75: u_a2 - u_a0 - 1236 y_a0_proc_0 >= -1000001299
 c76: u_a2 - u_a0 - 398 y_a0_proc_1 >= -1000001299
 c77: u_a0 - u_a2 - 659 y_a2_proc_2 >= 999998698
 c78: u_a0 - u_a2 - 1041 y_a2_proc_3 >= 999996098
 c79: u_a0 - u_a2 - 1203 y_a2_proc_0 >= 999996098
 c80: u_a0 - u_a2 - 1052 y_a2_proc_1 >= 999996098
 c81: u_a3 - u_a0 - 364 y_a0_proc_2 >= -2600
 c82: u_a3 - u_a0 - 882 y_a0_proc_3 >= -3900
 c83: u_a3 - u_a0 - 1236 y_a0_proc_0 >= -2600
 c84: u_a3 - u_a0 - 398 y_a0_proc_1 >= -3900
 c85: u_a0 - u_a3 - 515 y_a3_proc_2 >= -1
 c86: u_a0 - u_a3 - 645 y_a3_proc_3 >= -1301
 c87: u_a0 - u_a3 - 494 y_a3_proc_0 >= -1
 c88: u_a0 - u_a3 - 604 y_a3_proc_1 >= -1301
 c89: u_a4 - u_a0 - 364 y_a0_proc_2 >= -1000001300
 c90: u_a4 - u_a0 - 882 y_a0_proc_3 >= -1000002600
 c91: u_a4 - u_a0 - 398 y_a0_proc_1 >= -1000001300
 c92: u_a0 - u_a4 - 666 y_a4_proc_2 >= 999998699
 c93: u_a0 - u_a4 - 1300 y_a4_proc_3 >= 999997399
 c94: u_a0 - u_a4 - 627 y_a4_proc_1 >= 999998699
 c95: u_a5 - u_a0 - 882 y_a0_proc_3 >= -3900
 c96: u_a5 - u_a0 - 1236 y_a0_proc_0 >= -2600
 c97: u_a5 - u_a0 - 398 y_a0_proc_1 >= -3900
 c98: u_a0 - u_a5 - 697 y_a5_proc_3 >= -1301
 c99: u_a0 - u_a5 - 1100 y_a5_proc_0 >= -1
 c100: u_a0 - u_a5 - 1009 y_a5_proc_1 >= -1301
 c101: u_a6 - u_a0 - 364 y_a0_proc_2 >= -2600
 c102: u_a6 - u_a0 - 882 y_a0_proc_3 >= -3900
 c103: u_a6 - u_a0 - 1236 y_a0_proc_0 >= -2600
 c104: u_a6 - u_a0 - 398 y_a0_proc_1 >= -3900
 c105: u_a0 - u_a6 - 1029 y_a6_proc_2 >= -1
 c106: u_a0 - u_a6 - 944 y_a6_proc_3 >= -1301
 c107: u_a0 - u_a6 - 935 y_a6_proc_0 >= -1
 c108: u_a0 - u_a6 - 1069 y_a6_proc_1 >= -1301
 c109: u_a7 - u_a0 - 364 y_a0_proc_2 >= 0
 c110: u_a7 - u_a0 - 882 y_a0_proc_3 >= -2600
 c111: u_a0 - u_a7 - 1124 y_a7_proc_2 >= -1
 c112: u_a0 - u_a7 - 1050 y_a7_proc_3 >= -2601
 c113: u_a8 - u_a0 - 364 y_a0_proc_2 >= -1000001299
 c114: u_a8 - u_a0 - 882 y_a0_proc_3 >= -1000001299
 c115: u_a0 - u_a8 - 1091 y_a8_proc_2 >= 999998698
 c116: u_a0 - u_a8 - 932 y_a8_proc_3 >= 999998698
 c117: u_a9 - u_a0 - 364 y_a0_proc_2 >= -1000001299
 c118: u_a9 - u_a0 - 1236 y_a0_proc_0 >= -1000002599
 c119: u_a9 - u_a0 - 398 y_a0_proc_1 >= -1000001299
 c120: u_a0 - u_a9 - 675 y_a9_proc_2 >= 999998698
 c121: u_a0 - u_a9 - 1170 y_a9_proc_0 >= 999997398
 c122: u_a0 - u_a9 - 445 y_a9_proc_1 >= 999998698
 c123: u_a2 - u_a1 - 1207 y_a1_proc_3 >= -1000002599
 c124: u_a2 - u_a1 - 368 y_a1_proc_0 >= -1000001299
 c125: u_a2 - u_a1 - 765 y_a1_proc_1 >= -1000002599
 c126: u_a1 - u_a2 - 1041 y_a2_proc_3 >= 999997398
 c127: u_a1 - u_a2 - 1203 y_a2_proc_0 >= 999998698
 c128: u_a1 - u_a2 - 1052 y_a2_proc_1 >= 999997398
 c129: u_a3 - u_a1 - 1207 y_a1_proc_3 >= -2600
 c130: u_a3 - u_a1 - 368 y_a1_proc_0 >= 0
 c131: u_a3 - u_a1 - 765 y_a1_proc_1 >= -2600
 c132: u_a1 - u_a3 - 645 y_a3_proc_3 >= -2601
 c133: u_a1 - u_a3 - 494 y_a3_proc_0 >= -1
 c134: u_a1 - u_a3 - 604 y_a3_proc_1 >= -2601
 c135: u_a4 - u_a1 - 1207 y_a1_proc_3 >= -1000002600
 c136: u_a4 - u_a1 - 765 y_a1_proc_1 >= -1000001300
 c137: u_a1 - u_a4 - 1300 y_a4_proc_3 >= 999997399
 c138: u_a1 - u_a4 - 627 y_a4_proc_1 >= 999998699
 c139: u_a5 - u_a1 - 1207 y_a1_proc_3 >= -2600
 c140: u_a5 - u_a1 - 368 y_a1_proc_0 >= 0
 c141: u_a5 - u_a1 - 765 y_a1_proc_1 >= -2600
 c142: u_a1 - u_a5 - 697 y_a5_proc_3 >= -2601
 c143: u_a1 - u_a5 - 1100 y_a5_proc_0 >= -1
 c144: u_a1 - u_a5 - 1009 y_a5_proc_1 >= -2601
 c145: u_a6 - u_a1 - 1207 y_a1_proc_3 >= -2600
 c146: u_a6 - u_a1 - 368 y_a1_proc_0 >= 0
 c147: u_a6 - u_a1 - 765 y_a1_proc_1 >= -2600
 c148: u_a1 - u_a6 - 944 y_a6_proc_3 >= -2601
 c149: u_a1 - u_a6 - 935 y_a6_proc_0 >= -1
 c150: u_a1 - u_a6 - 1069 y_a6_proc_1 >= -2601
 c151: u_a7 - u_a1 - 1207 y_a1_proc_3 >= -5200
 c152: u_a1 - u_a7 - 1050 y_a7_proc_3 >= -1
 c153: u_a8 - u_a1 - 1207 y_a1_proc_3 >= -1000001299
 c154: u_a1 - u_a8 - 932 y_a8_proc_3 >= 999998698
 c155: u_a9 - u_a1 - 368 y_a1_proc_0 >= -1000001299
 c156: u_a9 - u_a1 - 765 y_a1_proc_1 >= -1000001299
 c157: u_a1 - u_a9 - 1170 y_a9_proc_0 >= 999998698
 c158: u_a1 - u_a9 - 445 y_a9_proc_1 >= 999998698
 c159: u_a3 - u_a2 - 659 y_a2_proc_2 >= 999996099
 c160: u_a3 - u_a2 - 1041 y_a2_proc_3 >= 999994799
 c161: u_a3 - u_a2 - 1203 y_a2_proc_0 >= 999996099
 c162: u_a3 - u_a2 - 1052 y_a2_proc_1 >= 999994799
 c163: u_a2 - u_a3 - 515 y_a3_proc_2 >= -999998700
 c164: u_a2 - u_a3 - 645 y_a3_proc_3 >= -1000000000
 c165: u_a2 - u_a3 - 494 y_a3_proc_0 >= -999998700
 c166: u_a2 - u_a3 - 604 y_a3_proc_1 >= -1000000000
 c167: u_a4 - u_a2 - 659 y_a2_proc_2 >= -2601
 c168: u_a4 - u_a2 - 1041 y_a2_proc_3 >= -3901
 c169: u_a4 - u_a2 - 1052 y_a2_proc_1 >= -2601
 c170: u_a2 - u_a4 - 666 y_a4_proc_2 >= 0
 c171: u_a2 - u_a4 - 1300 y_a4_proc_3 >= -1300
 c172: u_a2 - u_a4 - 627 y_a4_proc_1 >= 0
 c173: u_a5 - u_a2 - 1041 y_a2_proc_3 >= 999994799
 c174: u_a5 - u_a2 - 1203 y_a2_proc_0 >= 999996099
 c175: u_a5 - u_a2 - 1052 y_a2_proc_1 >= 999994799
 c176: u_a2 - u_a5 - 697 y_a5_proc_3 >= -1000000000
 c177: u_a2 - u_a5 - 1100 y_a5_proc_0 >= -999998700
 c178: u_a2 - u_a5 - 1009 y_a5_proc_1 >= -1000000000
 c179: u_a6 - u_a2 - 659 y_a2_proc_2 >= 999996098
 c180: u_a6 - u_a2 - 1041 y_a2_proc_3 >= 999994798
 c181: u_a6 - u_a2 - 1203 y_a2_proc_0 >= 999996098
 c182: u_a6 - u_a2 - 1052 y_a2_proc_1 >= 999994798
 c183: u_a2 - u_a6 - 1029 y_a6_proc_2 >= -999998699
 c184: u_a2 - u_a6 - 944 y_a6_proc_3 >= -999999999
 c185: u_a2 - u_a6 - 935 y_a6_proc_0 >= -999998699
 c186: u_a2 - u_a6 - 1069 y_a6_proc_1 >= -999999999
 c187: u_a7 - u_a2 - 659 y_a2_proc_2 >= 999998699
 c188: u_a7 - u_a2 - 1041 y_a2_proc_3 >= 999996099
 c189: u_a2 - u_a7 - 1124 y_a7_proc_2 >= -999998700
 c190: u_a2 - u_a7 - 1050 y_a7_proc_3 >= -1000001300
 c191: u_a8 - u_a2 - 659 y_a2_proc_2 >= -2600
 c192: u_a8 - u_a2 - 1041 y_a2_proc_3 >= -2600
 c193: u_a2 - u_a8 - 1091 y_a8_proc_2 >= -1
 c194: u_a2 - u_a8 - 932 y_a8_proc_3 >= -1
 c195: u_a9 - u_a2 - 659 y_a2_proc_2 >= -2600
 c196: u_a9 - u_a2 - 1203 y_a2_proc_0 >= -3900
 c197: u_a9 - u_a2 - 1052 y_a2_proc_1 >= -2600
 c198: u_a2 - u_a9 - 675 y_a9_proc_2 >= -1
 c199: u_a2 - u_a9 - 1170 y_a9_proc_0 >= -1301
 c200: u_a2 - u_a9 - 445 y_a9_proc_1 >= -1
 c201: u_a4 - u_a3 - 515 y_a3_proc_2 >= -1000002600
 c202: u_a4 - u_a3 - 645 y_a3_proc_3 >= -1000002600
 c203: u_a4 - u_a3 - 604 y_a3_proc_1 >= -1000001300
 c204: u_a3 - u_a4 - 666 y_a4_proc_2 >= 999997399
 c205: u_a3 - u_a4 - 1300 y_a4_proc_3 >= 999997399
 c206: u_a3 - u_a4 - 627 y_a4_proc_1 >= 999998699
 c207: u_a5 - u_a3 - 645 y_a3_proc_3 >= -2601
 c208: u_a5 - u_a3 - 494 y_a3_proc_0 >= -1
 c209: u_a5 - u_a3 - 604 y_a3_proc_1 >= -2601
 c210: u_a3 - u_a5 - 697 y_a5_proc_3 >= -2600
 c211: u_a3 - u_a5 - 1100 y_a5_proc_0 >= 0
 c212: u_a3 - u_a5 - 1009 y_a5_proc_1 >= -2600
 c213: u_a6 - u_a3 - 515 y_a3_proc_2 >= -2601
 c214: u_a6 - u_a3 - 645 y_a3_proc_3 >= -2601
 c215: u_a6 - u_a3 - 494 y_a3_proc_0 >= -1
 c216: u_a6 - u_a3 - 604 y_a3_proc_1 >= -2601
 c217: u_a3 - u_a6 - 1029 y_a6_proc_2 >= -2600
 c218: u_a3 - u_a6 - 944 y_a6_proc_3 >= -2600
 c219: u_a3 - u_a6 - 935 y_a6_proc_0 >= 0
 c220: u_a3 - u_a6 - 1069 y_a6_proc_1 >= -2600
 c221: u_a7 - u_a3 - 515 y_a3_proc_2 >= -2601
 c222: u_a7 - u_a3 - 645 y_a3_proc_3 >= -3901
 c223: u_a3 - u_a7 - 1124 y_a7_proc_2 >= 0
 c224: u_a3 - u_a7 - 1050 y_a7_proc_3 >= -1300
 c225: u_a8 - u_a3 - 515 y_a3_proc_2 >= -1000002600
 c226: u_a8 - u_a3 - 645 y_a3_proc_3 >= -1000001300
 c227: u_a3 - u_a8 - 1091 y_a8_proc_2 >= 999997399
 c228: u_a3 - u_a8 - 932 y_a8_proc_3 >= 999998699
 c229: u_a9 - u_a3 - 515 y_a3_proc_2 >= -1000002600
 c230: u_a9 - u_a3 - 494 y_a3_proc_0 >= -1000001300
 c231: u_a9 - u_a3 - 604 y_a3_proc_1 >= -1000001300
 c232: u_a3 - u_a9 - 675 y_a9_proc_2 >= 999997399
 c233: u_a3 - u_a9 - 1170 y_a9_proc_0 >= 999998699
 c234: u_a3 - u_a9 - 445 y_a9_proc_1 >= 999998699
 c235: u_a5 - u_a4 - 1300 y_a4_proc_3 >= 999997399
 c236: u_a5 - u_a4 - 627 y_a4_proc_1 >= 999998699
 c237: u_a4 - u_a5 - 697 y_a5_proc_3 >= -1000002600
 c238: u_a4 - u_a5 - 1009 y_a5_proc_1 >= -1000001300
 c239: u_a6 - u_a4 - 666 y_a4_proc_2 >= 999994799
 c240: u_a6 - u_a4 - 1300 y_a4_proc_3 >= 999994799
 c241: u_a6 - u_a4 - 627 y_a4_proc_1 >= 999996099
 c242: u_a4 - u_a6 - 1029 y_a6_proc_2 >= -1000000000
 c243: u_a4 - u_a6 - 944 y_a6_proc_3 >= -1000000000
 c244: u_a4 - u_a6 - 1069 y_a6_proc_1 >= -999998700
 c245: u_a7 - u_a4 - 666 y_a4_proc_2 >= 999996100
 c246: u_a7 - u_a4 - 1300 y_a4_proc_3 >= 999994800
 c247: u_a4 - u_a7 - 1124 y_a7_proc_2 >= -999998701
 c248: u_a4 - u_a7 - 1050 y_a7_proc_3 >= -1000000001
 c249: u_a8 - u_a4 - 666 y_a4_proc_2 >= -3900
 c250: u_a8 - u_a4 - 1300 y_a4_proc_3 >= -2600
 c251: u_a4 - u_a8 - 1091 y_a8_proc_2 >= -1301
 c252: u_a4 - u_a8 - 932 y_a8_proc_3 >= -1
 c253: u_a9 - u_a4 - 666 y_a4_proc_2 >= -2599
 c254: u_a9 - u_a4 - 627 y_a4_proc_1 >= 1
 c255: u_a4 - u_a9 - 675 y_a9_proc_2 >= -2602
 c256: u_a4 - u_a9 - 445 y_a9_proc_1 >= -2
 c257: u_a6 - u_a5 - 697 y_a5_proc_3 >= -2601
 c258: u_a6 - u_a5 - 1100 y_a5_proc_0 >= -1
 c259: u_a6 - u_a5 - 1009 y_a5_proc_1 >= -2601
 c260: u_a5 - u_a6 - 944 y_a6_proc_3 >= -2600
 c261: u_a5 - u_a6 - 935 y_a6_proc_0 >= 0
 c262: u_a5 - u_a6 - 1069 y_a6_proc_1 >= -2600
 c263: u_a7 - u_a5 - 697 y_a5_proc_3 >= 0
 c264: u_a5 - u_a7 - 1050 y_a7_proc_3 >= -5201
 c265: u_a8 - u_a5 - 697 y_a5_proc_3 >= -1000001300
 c266: u_a5 - u_a8 - 932 y_a8_proc_3 >= 999998699
 c267: u_a9 - u_a5 - 1100 y_a5_proc_0 >= -1000001299
 c268: u_a9 - u_a5 - 1009 y_a5_proc_1 >= -1000001299
 c269: u_a5 - u_a9 - 1170 y_a9_proc_0 >= 999998698
 c270: u_a5 - u_a9 - 445 y_a9_proc_1 >= 999998698
 c271: u_a7 - u_a6 - 1029 y_a6_proc_2 >= -2600
 c272: u_a7 - u_a6 - 944 y_a6_proc_3 >= -3900
 c273: u_a6 - u_a7 - 1124 y_a7_proc_2 >= -1
 c274: u_a6 - u_a7 - 1050 y_a7_proc_3 >= -1301
 c275: u_a8 - u_a6 - 1029 y_a6_proc_2 >= -1000002599
 c276: u_a8 - u_a6 - 944 y_a6_proc_3 >= -1000001299
 c277: u_a6 - u_a8 - 1091 y_a8_proc_2 >= 999997398
 c278: u_a6 - u_a8 - 932 y_a8_proc_3 >= 999998698
 c279: u_a9 - u_a6 - 1029 y_a6_proc_2 >= -1000002599
 c280: u_a9 - u_a6 - 935 y_a6_proc_0 >= -1000001299
 c281: u_a9 - u_a6 - 1069 y_a6_proc_1 >= -1000001299
 c282: u_a6 - u_a9 - 675 y_a9_proc_2 >= 999997398
 c283: u_a6 - u_a9 - 1170 y_a9_proc_0 >= 999998698
 c284: u_a6 - u_a9 - 445 y_a9_proc_1 >= 999998698
 c285: u_a8 - u_a7 - 1124 y_a7_proc_2 >= -1000001300
 c286: u_a8 - u_a7 - 1050 y_a7_proc_3 >= -1000001300
 c287: u_a7 - u_a8 - 1091 y_a8_proc_2 >= 999998699
 c288: u_a7 - u_a8 - 932 y_a8_proc_3 >= 999998699
 c289: u_a9 - u_a7 - 1124 y_a7_proc_2 >= -1000001300
 c290: u_a7 - u_a9 - 675 y_a9_proc_2 >= 999998699
 c291: u_a9 - u_a8 - 1091 y_a8_proc_2 >= -5200
 c292: u_a8 - u_a9 - 675 y_a9_proc_2 >= -1

Bounds
End
