benchmark/results/graph__10-1000-0.10-04_13/error_log/graph__10-1000-0.10-04_13_Quinton_Benders_primal_sub_ERRORLOG.txt
solution for: Quinton Benders_primal_sub
objective: 0.000181719
status: OPTIMAL_SOLUTION(2)
u_a0=999998699.475
u_a1=999998699.408
u_a2=0.711
u_a3=999998700.318
u_a5=999998700.114
u_a6=999998699.541
u_a7=999998700.114
u_a8=0.831
u_a9=1.114
tau=0.000
y_a0_proc_2=0.000
y_a1_proc_0=0.000
y_a2_proc_2=0.000
y_a3_proc_0=0.000
y_a4_proc_1=0.000
y_a5_proc_0=0.000
y_a6_proc_0=0.000
y_a7_proc_2=0.000
y_a8_proc_3=0.000
y_a9_proc_1=0.000
